
;this file is automatically generated: Wed Sep 22 15:15:58 IST 2021

;declarations generated

(declare-fun Gender ( Int) Int)
(declare-fun oclExcludes ( Int Int) Bool)
(declare-fun type_d882c6d5_3f04_4192_9b46_97bb55e0e6a6_Assignment ( Int) Bool)
(declare-fun Cardinality ( Int) Int)
(declare-fun rel_11c7b34c_8362_4ea8_9bc9_449dc06f5e34_study ( Int Int) Bool)
(declare-fun student_year ( Int) Int)
(declare-fun type_d882c6d5_3f04_4192_9b46_97bb55e0e6a6_Module ( Int) Bool)
(declare-fun type_d882c6d5_3f04_4192_9b46_97bb55e0e6a6_Student ( Int) Bool)
(declare-fun obj_d7fa501e_e8fc_4c88_bc0c_bcda1dd7ac8a ( Int) Int)
(declare-fun oclSelect ( Int Bool) Int)
(declare-fun module_year ( Int) Int)
(declare-fun type_d882c6d5_3f04_4192_9b46_97bb55e0e6a6_Department ( Int) Bool)
(declare-fun container_ ( Int) Int)
(declare-fun k86d98db2_864b_409e_83c8_e40bc7dd8d9b () Int)
(declare-fun k436b5c7d_d319_4830_9c8c_760d1eba4c0d () Int)
(declare-fun type_d882c6d5_3f04_4192_9b46_97bb55e0e6a6_Person ( Int) Bool)
(declare-fun oclIncludes ( Int Int) Bool)
(declare-fun ObjAt ( Int Int) Int)

;formula(s) generated
(assert (forall ((x Int)(y Int)) (=> (and ( rel_11c7b34c_8362_4ea8_9bc9_449dc06f5e34_study ( obj_d7fa501e_e8fc_4c88_bc0c_bcda1dd7ac8a x )   ( obj_d7fa501e_e8fc_4c88_bc0c_bcda1dd7ac8a y )  )  (and (and ( type_d882c6d5_3f04_4192_9b46_97bb55e0e6a6_Student x )  ( type_d882c6d5_3f04_4192_9b46_97bb55e0e6a6_Person x ) ) ( type_d882c6d5_3f04_4192_9b46_97bb55e0e6a6_Module y ) )) (or (or (or (= (* ( Cardinality ( container_ x )  )  0) (* ( Cardinality ( container_ y )  )  1)) (and (= (* ( Cardinality ( container_ y )  )  1) (* ( Cardinality ( container_ x )  )  k436b5c7d_d319_4830_9c8c_760d1eba4c0d)) (>= k436b5c7d_d319_4830_9c8c_760d1eba4c0d 0))) (= (* ( Cardinality ( container_ x )  )  0) (* ( Cardinality ( container_ y )  )  1))) (and (= (* ( Cardinality ( container_ y )  )  1) (* ( Cardinality ( container_ x )  )  k86d98db2_864b_409e_83c8_e40bc7dd8d9b)) (>= k86d98db2_864b_409e_83c8_e40bc7dd8d9b 0))))))
(assert (! (and (forall ((v Int)) (=> (and ( type_d882c6d5_3f04_4192_9b46_97bb55e0e6a6_Student v )  ( type_d882c6d5_3f04_4192_9b46_97bb55e0e6a6_Person v ) ) (>= ( student_year ( obj_d7fa501e_e8fc_4c88_bc0c_bcda1dd7ac8a v )  )  1))) (forall ((v Int)) (=> (and ( type_d882c6d5_3f04_4192_9b46_97bb55e0e6a6_Student v )  ( type_d882c6d5_3f04_4192_9b46_97bb55e0e6a6_Person v ) ) (<= ( student_year ( obj_d7fa501e_e8fc_4c88_bc0c_bcda1dd7ac8a v )  )  6)))):named l0))
(assert (! (and (exists ((s Int)) (and (and ( type_d882c6d5_3f04_4192_9b46_97bb55e0e6a6_Student s )  ( type_d882c6d5_3f04_4192_9b46_97bb55e0e6a6_Person s ) ) (= ( student_year ( obj_d7fa501e_e8fc_4c88_bc0c_bcda1dd7ac8a s )  )  6))) (exists ((s Int)) (and (and ( type_d882c6d5_3f04_4192_9b46_97bb55e0e6a6_Student s )  ( type_d882c6d5_3f04_4192_9b46_97bb55e0e6a6_Person s ) ) (< ( student_year ( obj_d7fa501e_e8fc_4c88_bc0c_bcda1dd7ac8a s )  )  6)))):named l1))
(assert (! (forall ((s1 Int)) (=> (and ( type_d882c6d5_3f04_4192_9b46_97bb55e0e6a6_Student s1 )  ( type_d882c6d5_3f04_4192_9b46_97bb55e0e6a6_Person s1 ) ) (forall ((m1 Int)) (=> (and ( type_d882c6d5_3f04_4192_9b46_97bb55e0e6a6_Module m1 )  ( rel_11c7b34c_8362_4ea8_9bc9_449dc06f5e34_study ( obj_d7fa501e_e8fc_4c88_bc0c_bcda1dd7ac8a s1 )   ( obj_d7fa501e_e8fc_4c88_bc0c_bcda1dd7ac8a m1 )  ) ) (= ( student_year ( obj_d7fa501e_e8fc_4c88_bc0c_bcda1dd7ac8a s1 )  )  ( module_year ( obj_d7fa501e_e8fc_4c88_bc0c_bcda1dd7ac8a m1 )  ) ))))):named l2))
(assert (! (and (forall ((v Int)) (=> ( type_d882c6d5_3f04_4192_9b46_97bb55e0e6a6_Module v )  (>= ( module_year ( obj_d7fa501e_e8fc_4c88_bc0c_bcda1dd7ac8a v )  )  1))) (forall ((v Int)) (=> ( type_d882c6d5_3f04_4192_9b46_97bb55e0e6a6_Module v )  (<= ( module_year ( obj_d7fa501e_e8fc_4c88_bc0c_bcda1dd7ac8a v )  )  5)))):named l3))
(assert (! (forall ((s Int)) (=> (and ( type_d882c6d5_3f04_4192_9b46_97bb55e0e6a6_Student s )  ( type_d882c6d5_3f04_4192_9b46_97bb55e0e6a6_Person s ) ) (exists ((v Int)) (and ( type_d882c6d5_3f04_4192_9b46_97bb55e0e6a6_Module v )  ( rel_11c7b34c_8362_4ea8_9bc9_449dc06f5e34_study ( obj_d7fa501e_e8fc_4c88_bc0c_bcda1dd7ac8a s )   ( obj_d7fa501e_e8fc_4c88_bc0c_bcda1dd7ac8a v )  ) )))):named l4))
(assert (! (exists ((o Int)) ( type_d882c6d5_3f04_4192_9b46_97bb55e0e6a6_Assignment ( obj_d7fa501e_e8fc_4c88_bc0c_bcda1dd7ac8a o )  ) ):named c0))
(assert (! (exists ((o Int)) ( type_d882c6d5_3f04_4192_9b46_97bb55e0e6a6_Department ( obj_d7fa501e_e8fc_4c88_bc0c_bcda1dd7ac8a o )  ) ):named c1))
(assert (! (exists ((o Int)) ( type_d882c6d5_3f04_4192_9b46_97bb55e0e6a6_Module ( obj_d7fa501e_e8fc_4c88_bc0c_bcda1dd7ac8a o )  ) ):named c2))
(assert (! (exists ((o Int)) ( type_d882c6d5_3f04_4192_9b46_97bb55e0e6a6_Person ( obj_d7fa501e_e8fc_4c88_bc0c_bcda1dd7ac8a o )  ) ):named c3))
(assert (! (exists ((o Int)) (and ( type_d882c6d5_3f04_4192_9b46_97bb55e0e6a6_Student ( obj_d7fa501e_e8fc_4c88_bc0c_bcda1dd7ac8a o )  )  ( type_d882c6d5_3f04_4192_9b46_97bb55e0e6a6_Person ( obj_d7fa501e_e8fc_4c88_bc0c_bcda1dd7ac8a o )  ) )):named c4))

 ;end of formula 